1000
[101,104,105,110,111,113,114,116,117,122,124,125,130,131,132,133,140,143,145,146,158,164,174,176,179,181,183,188,193,194,196,199,201,202,204,214,218,220,221,222,223,225,229,232,233,234,239,240,243,244,245,249,251,254,255,258,261,262,264,267,268,271,276,277,278,280,287,288,289,298,301,305,308,311,312,313,314,315,322,325,327,331,333,334,335,339,342,344,345,347,348,352,353,354,355,356,358,361,363,368,369,370,371,376,377,378,381,383,385,386,390,393,394,396,397,400,402,403,404,407,409,411,414,415,416,418,421,422,423,425,431,432,434,435,439,441,442,445,446,448,449,450,451,455,462,474,475,476,479,481,483,484,490,494,496,497,500,502,504,506,512,514,516,520,521,522,529,531,532,534,535,537,539,540,545,549,550,552,553,554,557,560,563,564,566,569,570,571,575,576,577,579,583,586,587,588,589,590,592,594,595,597,598,599,601,602,603,604,613,615,618,621,622,627,628,629,631,632,635,637,638,639,640,641,642,647,648,650,653,660,662,665,671,680,685,686,689,693,695,698]
[1,2,2,1,1,1,1,1,1,1,2,1,2,1,1,2,1,2,1,2,1,1,1,1,1,1,1,1,1,1,1,1,1,1,1,1,3,1,1,2,1,2,1,1,3,2,1,1,1,1,1,1,1,1,1,1,1,2,1,1,1,2,3,1,2,1,1,2,1,2,1,1,1,1,1,1,2,2,2,1,1,1,1,1,1,1,1,1,1,1,1,1,1,1,1,1,2,1,1,2,1,1,1,1,2,1,1,1,1,2,1,1,1,1,1,1,1,1,2,1,1,2,1,1,2,1,1,1,1,1,2,2,1,1,1,1,1,1,1,2,1,4,1,1,1,1,1,1,1,1,1,2,1,1,1,1,1,1,3,1,1,1,2,3,1,1,1,1,1,1,1,1,1,1,3,2,1,1,1,1,1,1,1,2,1,2,1,1,1,1,1,1,1,1,2,1,1,1,1,1,1,1,1,1,2,2,1,2,2,1,1,2,1,1,1,2,1,1,1,2,2,1,1,1,1,1,1,2,1,1,2,1,1,1,1,1,1,1,1,2]
